c book.min
c
p min 7 120
c
n 1 100
n 6 50
n 7 -150
c
a 1 2 0 30 20
a 1 2 0 30 40
a 1 2 0 30 60
a 1 2 0 30 80
a 1 2 0 30 100
a 2 1 0 30 20
a 2 1 0 30 40
a 2 1 0 30 60
a 2 1 0 30 80
a 2 1 0 30 100
c
a 1 3 0 30 20
a 1 3 0 30 40
a 1 3 0 30 60
a 1 3 0 30 80
a 1 3 0 30 100
a 3 1 0 30 20
a 3 1 0 30 40
a 3 1 0 30 60
a 3 1 0 30 80
a 3 1 0 30 100
c
a 2 3 0 30 20
a 2 3 0 30 40
a 2 3 0 30 60
a 2 3 0 30 80
a 2 3 0 30 100
a 3 2 0 30 20
a 3 2 0 30 40
a 3 2 0 30 60
a 3 2 0 30 80
a 3 2 0 30 100
c
a 2 4 0 30 20
a 2 4 0 30 40
a 2 4 0 30 60
a 2 4 0 30 80
a 2 4 0 30 100
a 4 2 0 30 20
a 4 2 0 30 40
a 4 2 0 30 60
a 4 2 0 30 80
a 4 2 0 30 100
c
a 2 7 0 30 20
a 2 7 0 30 40
a 2 7 0 30 60
a 2 7 0 30 80
a 2 7 0 30 100
a 7 2 0 30 20
a 7 2 0 30 40
a 7 2 0 30 60
a 7 2 0 30 80
a 7 2 0 30 100
c
a 3 5 0 30 20
a 3 5 0 30 40
a 3 5 0 30 60
a 3 5 0 30 80
a 3 5 0 30 100
a 5 3 0 30 20
a 5 3 0 30 40
a 5 3 0 30 60
a 5 3 0 30 80
a 5 3 0 30 100
c
a 3 7 0 30 20
a 3 7 0 30 40
a 3 7 0 30 60
a 3 7 0 30 80
a 3 7 0 30 100
a 7 3 0 30 20
a 7 3 0 30 40
a 7 3 0 30 60
a 7 3 0 30 80
a 7 3 0 30 100
c
a 4 5 0 30 20
a 4 5 0 30 40
a 4 5 0 30 60
a 4 5 0 30 80
a 4 5 0 30 100
a 5 4 0 30 20
a 5 4 0 30 40
a 5 4 0 30 60
a 5 4 0 30 80
a 5 4 0 30 100
c
a 4 6 0 30 20
a 4 6 0 30 40
a 4 6 0 30 60
a 4 6 0 30 80
a 4 6 0 30 100
a 6 4 0 30 20
a 6 4 0 30 40
a 6 4 0 30 60
a 6 4 0 30 80
a 6 4 0 30 100
c
a 4 7 0 30 20
a 4 7 0 30 40
a 4 7 0 30 60
a 4 7 0 30 80
a 4 7 0 30 100
a 7 4 0 30 20
a 7 4 0 30 40
a 7 4 0 30 60
a 7 4 0 30 80
a 7 4 0 30 100
c
a 5 6 0 30 20
a 5 6 0 30 40
a 5 6 0 30 60
a 5 6 0 30 80
a 5 6 0 30 100
a 6 5 0 30 20
a 6 5 0 30 40
a 6 5 0 30 60
a 6 5 0 30 80
a 6 5 0 30 100
c
a 5 7 0 30 20
a 5 7 0 30 40
a 5 7 0 30 60
a 5 7 0 30 80
a 5 7 0 30 100
a 7 5 0 30 20
a 7 5 0 30 40
a 7 5 0 30 60
a 7 5 0 30 80
a 7 5 0 30 100
c
c eof
